SYSTEM = Bi2WO6monoclinic  
start Parameters
  NWRITE     = 2      ! Medium-level information output
  ISTART     = 1      ! read existing wavefunction; if there
  INIWAV     = 1      ! Random initial wavefunction; otherwise

parallelisation
  NCORE  = 8         ! No. cores per orbital
  KPAR   = 2          ! K-point parallelisation 

electronic relaxation
  PREC    = Accurate  ! Precision level
  ALGO    = Normal      ! SCF minimisation algorithm; 38/48 combo
  ENCUT   = 700       ! Plane-wave cutoff
  GGA = PS
  EDIF = 1E-07        ! SCF energy differnece    
  LASPH   = .TRUE.    ! Non-spherical elements; d/f convergence
  LREAL   = Auto      ! Projection operators: automatic
  ADDGRID = .TRUE.    ! Increase grid; helps GGA convergence
  MAXMIX = 100
  BMIX = 1.5 
  NELM = 200 
  NELMIN = 4 
  MAXMIX = 100 
     	 
ionic relaxation
  EDIFFG = -0.001      ! Ionic convergence; eV/AA^3
  NSW = 80 
  ISIF = 2
  IBRION = 2
  ISMEAR  =  0 
  SIGMA  =  0.05  	 
