PbTiO3_Fe                               
   1.00000000000000     
    11.6249994541746773    0.0000000000000000    0.0000000000000000
     0.0000000000000000   11.6249994541746773    0.0000000000000000
     0.0000000000000000    0.0000000000000000   12.5683749014520227
   Ti   Pb   O    Fe
    26    27    81     1
Direct
  0.1667435458126851  0.1667776331466047  0.1834843744577916
  0.5000098908386793  0.1665002203463576  0.1829674533048865
  0.8332585254015827  0.1667729611600566  0.1834639154740098
  0.1664862125665298  0.4999797000655081  0.1831493653650132
  0.5000247463596387  0.4999890894316689  0.1816190633155557
  0.8335195659331160  0.4999871796504280  0.1831343498174824
  0.1667393063815165  0.8332270277655146  0.1834988356628786
  0.5000186150436445  0.8335223771162178  0.1829793231416679
  0.8332413457984043  0.8332232758549964  0.1834819562015765
  0.1666793454178468  0.1666446105562434  0.5171314156775374
  0.4999939884327744  0.1671901077126044  0.5175732227858879
  0.8333105667853535  0.1666455006300278  0.5171362154465426
  0.1672593182920688  0.4999926671140044  0.5175246865652795
  0.8327440831430848  0.5000070106785692  0.5175474199689170
  0.1666727349401001  0.8333538445461872  0.5171266753533637
  0.4999970185494619  0.8328195965694088  0.5175668537708514
  0.8333126223638226  0.8333623875409557  0.5171398449671137
  0.1672169834884996  0.1672479362077876  0.8489485271217803
  0.4999920769468909  0.1663547371044223  0.8502770102527049
  0.8327774727832111  0.1672491800736959  0.8489500856443611
  0.1662988374970732  0.4999961036078895  0.8501803644948634
  0.4999961329759618  0.5000009170509473  0.8489254396720927
  0.8337167151377868  0.5000042157744434  0.8501588530973561
  0.1672169378664901  0.8327500934087647  0.8489627794188647
  0.4999888959445117  0.8336412134880297  0.8502835988332780
  0.8327827059230415  0.8327529832371097  0.8489544319454624
  0.9999998600618186 -0.0000003294726906  0.0286286125464638
  0.3327292145318290 -0.0000015046067410  0.0290185515899212
  0.6672651494433506  0.0000026866001002  0.0289664593587449
  0.0000203667170455  0.3328599929764935  0.0289499857657712
  0.3333627943570410  0.3333830039426410  0.0288381289446348
  0.6666698157964568  0.3334009448814979  0.0288277961698374
  0.0000036450043257  0.6671544418337153  0.0290006469883536
  0.3333749906333983  0.6665969715899029  0.0289653171908208
  0.6666865085330650  0.6665811058490925  0.0288093810456307
  0.9999962292444925  0.0000024121504087  0.3627190216048462
  0.3337852508081168  1.0000026042335701  0.3630329255271015
  0.6662211028966988  0.0000076467146812  0.3630246184851537
  0.9999922475115742  0.3338005301000626  0.3631270083141962
  0.3354045948000606  0.3353425824065582  0.3653408780691859
  0.6646130311000089  0.3353396353427501  0.3653567809731864
  0.9999954856169609  0.6661978121906200  0.3631276198921511
  0.3353931675807743  0.6646647063692801  0.3653551860494800
  0.6646161263968147  0.6646698380649150  0.3653545668305800
 -0.0000021735382571  0.9999931041095884  0.6961134744042458
  0.3332388749182562  0.9999938520295287  0.6960880444355910
  0.6667466639696268  0.9999888509192275  0.6960973301030458
  0.9999796634766378  0.3331348338441003  0.6958279091492954
  0.3372967794402856  0.3373110302373811  0.6946726719660991
  0.6626676783709924  0.3372998055041739  0.6946810527989262
  0.0000215435560461  0.6668252558379787  0.6958452053260499
  0.3372745121234607  0.6627076960915415  0.6946803496448477
  0.6626655857939076  0.6626992251149815  0.6946792999642067
  0.0000088313446572  0.1664922648547168  0.1554517040967240
  0.3332001018323382  0.1664785330186459  0.1555672851393901
  0.6668061996947274  0.1664752291183749  0.1555591039243103
  0.0000071109334446  0.5000077390338844  0.1556757688087667
  0.3330228711541050  0.4999831410159393  0.1554478097975784
  0.6669995966184159  0.4999960830449960  0.1554143197296543
  0.9999964110552515  0.8335073252812775  0.1554819061681689
  0.3331972871405418  0.8335373165390458  0.1555743914080040
  0.6667998597424205  0.8335315627422429  0.1555599304939236
  0.9999934438341584  0.1663226521367203  0.4894831360846878
  0.3329572161778525  0.1656826711569718  0.4899531919526656
  0.6670416376113570  0.1656822275927455  0.4899553908568280
  1.0000011605864043  0.4999954304420771  0.4894406717697872
  0.3306729793939495  0.5000012998339149  0.4895175427880923
  0.6693365377763968  0.5000023313305884  0.4895447739672343
  0.9999954445341120  0.8336840632750482  0.4894667711001885
  0.3329570067611750  0.8343192214561412  0.4899535818368795
  0.6670407710736784  0.8343162087767880  0.4899560055704850
  0.9999970506264280  0.1667871498170385  0.8222262679315017
  0.3335642097144092  0.1665645671036839  0.8227836915682801
  0.6664229635592318  0.1665584027747742  0.8227959465534567
  1.0000026636987629  0.4999950591738822  0.8226931811321807
  0.3327034103297740  0.4999900455821740  0.8250365694565331
  0.6672938010765874  0.5000008590617725  0.8250314891280346
 -0.0000056439706551  0.8332102477374690  0.8222280348293192
  0.3335563979130637  0.8334326979281848  0.8227814992090600
  0.6664210162526297  0.8334371753806205  0.8227898793024579
  0.1665058736525512  0.0000018336626394  0.1554475377677814
  0.5000020462074135  0.0000050287941874  0.1555508432994885
  0.8334996838916874  1.0000020336284743  0.1554365644651064
  0.1664194964147765  0.3332260947302950  0.1556580914098507
  0.5000094057676827  0.3330624118214028  0.1554066099866235
  0.8335939175152457  0.3332298306115758  0.1556303202269487
  0.1664278903566015  0.6667730915754555  0.1556825156718765
  0.5000005530951784  0.6669334637755479  0.1554282284018017
  0.8335746888714796  0.6667739293677852  0.1556529676787552
  0.1661885420988379  1.0000001047880547  0.4894387683788458
  0.4999984394051735  0.0000049442805311  0.4893966075762892
  0.8338184131957994 -0.0000015115132566  0.4894412292772246
  0.1657701909116774  0.3329398445432122  0.4899752477309758
  0.5000017615189032  0.3306238631764381  0.4895715941861208
  0.8342303145426900  0.3329445240982069  0.4899724766553115
  0.1657665021962125  0.6670577675164977  0.4899601475808096
  0.4999955084681514  0.6693824402468658  0.4895423421185040
  0.8342347393919088  0.6670597652535565  0.4899837966905096
  0.1667709166190312 -0.0000000440901029  0.8222916811049936
  0.4999960969149713  0.9999982800100853  0.8228203779324766
  0.8332147505288545  1.0000012089966455  0.8223040432738760
  0.1665656945058912  0.3335620831109997  0.8227119628074256
  0.4999957923278125  0.3327040631451295  0.8250212193204906
  0.8334246893887788  0.3335647074632024  0.8227221827114256
  0.1665682860262908  0.6664338250400872  0.8227171711885127
  0.4999924970921211  0.6672924236779467  0.8250276250735210
  0.8334222202286924  0.6664404103065665  0.8227214249889070
  0.1662641144071573  0.1662400849436418  0.3243962204127353
  0.5000122375004482  0.1657997308019415  0.3240467217745465
  0.8337283766473726  0.1662335849945948  0.3243779288533726
  0.1658400724241565  0.4999864283999086  0.3242236275782265
  0.5000425462512045  0.4999755294796663  0.3226151379884963
  0.8341550041943478  0.4999921203846113  0.3242115768116312
  0.1662745207293890  0.8337732260062785  0.3244101844362370
  0.5000085113122049  0.8342305849481205  0.3240540388938848
  0.8337122382230019  0.8337757023640321  0.3243934844426038
  0.1663131323642844  0.1662698919597494  0.6582649748369055
  0.4999988410097024  0.1671962927416928  0.6591522843433597
  0.8336804355028461  0.1662668639001870  0.6582703683244836
  0.1672651043149494  0.5000002321178196  0.6591156549573719
  0.4999941961049699  0.4999940161522617  0.6675076430407909
  0.8327326114447835  0.5000017215251135  0.6591365931277271
  0.1662982394318446  0.8337145072059859  0.6582616897307109
  0.4999957185045217  0.8327999229135694  0.6591494028212285
  0.8336690222591117  0.8337520696789772  0.6582722603573692
  0.1666699510305530  0.1667254685144551  0.9903413603424023
  0.4999937440184358  0.1661367853545641  0.9916766669667957
  0.8333344862813584  0.1667075279141476  0.9903433731757002
  0.1659415927390768  0.4999873450684724  0.9915986243524186
  0.5000229374615136  0.4999791666923014  0.9914713822042442
  0.8340658432252543  0.5000133321231485  0.9915868088626684
  0.1666559348452186  0.8333007063474788  0.9903525255025947
  0.5000013771133348  0.8338740477866078  0.9916766334477973
  0.8333283372103359  0.8333110245755199  0.9903534282374838
  0.5000047260801389  0.5000028171837424  0.5185610971712072
 
  0.00000000E+00  0.00000000E+00  0.00000000E+00
  0.00000000E+00  0.00000000E+00  0.00000000E+00
  0.00000000E+00  0.00000000E+00  0.00000000E+00
  0.00000000E+00  0.00000000E+00  0.00000000E+00
  0.00000000E+00  0.00000000E+00  0.00000000E+00
  0.00000000E+00  0.00000000E+00  0.00000000E+00
  0.00000000E+00  0.00000000E+00  0.00000000E+00
  0.00000000E+00  0.00000000E+00  0.00000000E+00
  0.00000000E+00  0.00000000E+00  0.00000000E+00
  0.00000000E+00  0.00000000E+00  0.00000000E+00
  0.00000000E+00  0.00000000E+00  0.00000000E+00
  0.00000000E+00  0.00000000E+00  0.00000000E+00
  0.00000000E+00  0.00000000E+00  0.00000000E+00
  0.00000000E+00  0.00000000E+00  0.00000000E+00
  0.00000000E+00  0.00000000E+00  0.00000000E+00
  0.00000000E+00  0.00000000E+00  0.00000000E+00
  0.00000000E+00  0.00000000E+00  0.00000000E+00
  0.00000000E+00  0.00000000E+00  0.00000000E+00
  0.00000000E+00  0.00000000E+00  0.00000000E+00
  0.00000000E+00  0.00000000E+00  0.00000000E+00
  0.00000000E+00  0.00000000E+00  0.00000000E+00
  0.00000000E+00  0.00000000E+00  0.00000000E+00
  0.00000000E+00  0.00000000E+00  0.00000000E+00
  0.00000000E+00  0.00000000E+00  0.00000000E+00
  0.00000000E+00  0.00000000E+00  0.00000000E+00
  0.00000000E+00  0.00000000E+00  0.00000000E+00
  0.00000000E+00  0.00000000E+00  0.00000000E+00
  0.00000000E+00  0.00000000E+00  0.00000000E+00
  0.00000000E+00  0.00000000E+00  0.00000000E+00
  0.00000000E+00  0.00000000E+00  0.00000000E+00
  0.00000000E+00  0.00000000E+00  0.00000000E+00
  0.00000000E+00  0.00000000E+00  0.00000000E+00
  0.00000000E+00  0.00000000E+00  0.00000000E+00
  0.00000000E+00  0.00000000E+00  0.00000000E+00
  0.00000000E+00  0.00000000E+00  0.00000000E+00
  0.00000000E+00  0.00000000E+00  0.00000000E+00
  0.00000000E+00  0.00000000E+00  0.00000000E+00
  0.00000000E+00  0.00000000E+00  0.00000000E+00
  0.00000000E+00  0.00000000E+00  0.00000000E+00
  0.00000000E+00  0.00000000E+00  0.00000000E+00
  0.00000000E+00  0.00000000E+00  0.00000000E+00
  0.00000000E+00  0.00000000E+00  0.00000000E+00
  0.00000000E+00  0.00000000E+00  0.00000000E+00
  0.00000000E+00  0.00000000E+00  0.00000000E+00
  0.00000000E+00  0.00000000E+00  0.00000000E+00
  0.00000000E+00  0.00000000E+00  0.00000000E+00
  0.00000000E+00  0.00000000E+00  0.00000000E+00
  0.00000000E+00  0.00000000E+00  0.00000000E+00
  0.00000000E+00  0.00000000E+00  0.00000000E+00
  0.00000000E+00  0.00000000E+00  0.00000000E+00
  0.00000000E+00  0.00000000E+00  0.00000000E+00
  0.00000000E+00  0.00000000E+00  0.00000000E+00
  0.00000000E+00  0.00000000E+00  0.00000000E+00
  0.00000000E+00  0.00000000E+00  0.00000000E+00
  0.00000000E+00  0.00000000E+00  0.00000000E+00
  0.00000000E+00  0.00000000E+00  0.00000000E+00
  0.00000000E+00  0.00000000E+00  0.00000000E+00
  0.00000000E+00  0.00000000E+00  0.00000000E+00
  0.00000000E+00  0.00000000E+00  0.00000000E+00
  0.00000000E+00  0.00000000E+00  0.00000000E+00
  0.00000000E+00  0.00000000E+00  0.00000000E+00
  0.00000000E+00  0.00000000E+00  0.00000000E+00
  0.00000000E+00  0.00000000E+00  0.00000000E+00
  0.00000000E+00  0.00000000E+00  0.00000000E+00
  0.00000000E+00  0.00000000E+00  0.00000000E+00
  0.00000000E+00  0.00000000E+00  0.00000000E+00
  0.00000000E+00  0.00000000E+00  0.00000000E+00
  0.00000000E+00  0.00000000E+00  0.00000000E+00
  0.00000000E+00  0.00000000E+00  0.00000000E+00
  0.00000000E+00  0.00000000E+00  0.00000000E+00
  0.00000000E+00  0.00000000E+00  0.00000000E+00
  0.00000000E+00  0.00000000E+00  0.00000000E+00
  0.00000000E+00  0.00000000E+00  0.00000000E+00
  0.00000000E+00  0.00000000E+00  0.00000000E+00
  0.00000000E+00  0.00000000E+00  0.00000000E+00
  0.00000000E+00  0.00000000E+00  0.00000000E+00
  0.00000000E+00  0.00000000E+00  0.00000000E+00
  0.00000000E+00  0.00000000E+00  0.00000000E+00
  0.00000000E+00  0.00000000E+00  0.00000000E+00
  0.00000000E+00  0.00000000E+00  0.00000000E+00
  0.00000000E+00  0.00000000E+00  0.00000000E+00
  0.00000000E+00  0.00000000E+00  0.00000000E+00
  0.00000000E+00  0.00000000E+00  0.00000000E+00
  0.00000000E+00  0.00000000E+00  0.00000000E+00
  0.00000000E+00  0.00000000E+00  0.00000000E+00
  0.00000000E+00  0.00000000E+00  0.00000000E+00
  0.00000000E+00  0.00000000E+00  0.00000000E+00
  0.00000000E+00  0.00000000E+00  0.00000000E+00
  0.00000000E+00  0.00000000E+00  0.00000000E+00
  0.00000000E+00  0.00000000E+00  0.00000000E+00
  0.00000000E+00  0.00000000E+00  0.00000000E+00
  0.00000000E+00  0.00000000E+00  0.00000000E+00
  0.00000000E+00  0.00000000E+00  0.00000000E+00
  0.00000000E+00  0.00000000E+00  0.00000000E+00
  0.00000000E+00  0.00000000E+00  0.00000000E+00
  0.00000000E+00  0.00000000E+00  0.00000000E+00
  0.00000000E+00  0.00000000E+00  0.00000000E+00
  0.00000000E+00  0.00000000E+00  0.00000000E+00
  0.00000000E+00  0.00000000E+00  0.00000000E+00
  0.00000000E+00  0.00000000E+00  0.00000000E+00
  0.00000000E+00  0.00000000E+00  0.00000000E+00
  0.00000000E+00  0.00000000E+00  0.00000000E+00
  0.00000000E+00  0.00000000E+00  0.00000000E+00
  0.00000000E+00  0.00000000E+00  0.00000000E+00
  0.00000000E+00  0.00000000E+00  0.00000000E+00
  0.00000000E+00  0.00000000E+00  0.00000000E+00
  0.00000000E+00  0.00000000E+00  0.00000000E+00
  0.00000000E+00  0.00000000E+00  0.00000000E+00
  0.00000000E+00  0.00000000E+00  0.00000000E+00
  0.00000000E+00  0.00000000E+00  0.00000000E+00
  0.00000000E+00  0.00000000E+00  0.00000000E+00
  0.00000000E+00  0.00000000E+00  0.00000000E+00
  0.00000000E+00  0.00000000E+00  0.00000000E+00
  0.00000000E+00  0.00000000E+00  0.00000000E+00
  0.00000000E+00  0.00000000E+00  0.00000000E+00
  0.00000000E+00  0.00000000E+00  0.00000000E+00
  0.00000000E+00  0.00000000E+00  0.00000000E+00
  0.00000000E+00  0.00000000E+00  0.00000000E+00
  0.00000000E+00  0.00000000E+00  0.00000000E+00
  0.00000000E+00  0.00000000E+00  0.00000000E+00
  0.00000000E+00  0.00000000E+00  0.00000000E+00
  0.00000000E+00  0.00000000E+00  0.00000000E+00
  0.00000000E+00  0.00000000E+00  0.00000000E+00
  0.00000000E+00  0.00000000E+00  0.00000000E+00
  0.00000000E+00  0.00000000E+00  0.00000000E+00
  0.00000000E+00  0.00000000E+00  0.00000000E+00
  0.00000000E+00  0.00000000E+00  0.00000000E+00
  0.00000000E+00  0.00000000E+00  0.00000000E+00
  0.00000000E+00  0.00000000E+00  0.00000000E+00
  0.00000000E+00  0.00000000E+00  0.00000000E+00
  0.00000000E+00  0.00000000E+00  0.00000000E+00
  0.00000000E+00  0.00000000E+00  0.00000000E+00
  0.00000000E+00  0.00000000E+00  0.00000000E+00
  0.00000000E+00  0.00000000E+00  0.00000000E+00
  0.00000000E+00  0.00000000E+00  0.00000000E+00
